c turning on binary mode checking
c parsing input formula with 259840 variables and 1039934 clauses
c finished parsing, read 22031830 bytes from proof file
c detected empty clause; start verification via backward checking
c 9791 of 1039934 clauses in core                            
c 7488 of 563961 lemmas in core using 92410 resolution steps
c 0 RAT lemmas in core; 604 redundant literals in core lemmas
s VERIFIED
c verification time: 2.905 seconds
